19
-1 -1 7535 8
-5 5 1557 3
-6 -3 2092 9
4 -1 1284 6
-6 6 3997 2
5 1 7343 4
-4 -6 9504 2
5 5 6775 7
-4 -3 7124 0
-5 3 897 5
6 6 7675 1
4 -6 9657 1
-2 5 2575 6
2 -6 2374 4
6 -1 228 10
-2 -3 4946 1
-1 1 5872 10
-2 -2 6416 4
-1 0 8905 9
